Set parameter TokenServer to value "hpc-licenses.hpcc.usc.edu"
Set parameter TimeLimit to value 3600
Gurobi Optimizer version 9.5.1 build v9.5.1rc2 (linux64)
Thread count: 20 physical cores, 20 logical processors, using up to 20 threads
Optimize a model with 6007 rows, 4529 columns and 24534 nonzeros
Model fingerprint: 0x81ec41af
Variable types: 4506 continuous, 23 integer (23 binary)
Coefficient statistics:
  Matrix range     [1e+00, 1e+00]
  Objective range  [2e-04, 1e+00]
  Bounds range     [1e+00, 1e+00]
  RHS range        [1e+00, 2e+02]
Found heuristic solution: objective 255.9175540
Presolve removed 1520 rows and 1515 columns
Presolve time: 0.05s
Presolved: 4487 rows, 3014 columns, 21975 nonzeros
Variable types: 2994 continuous, 20 integer (20 binary)

Root relaxation: objective 2.747312e+02, 2605 iterations, 0.08 seconds (0.12 work units)

    Nodes    |    Current Node    |     Objective Bounds      |     Work
 Expl Unexpl |  Obj  Depth IntInf | Incumbent    BestBd   Gap | It/Node Time

     0     0  274.73124    0    2  255.91755  274.73124  7.35%     -    0s
H    0     0                     262.2636720  274.73124  4.75%     -    0s
     0     0  274.68273    0    2  262.26367  274.68273  4.74%     -    0s
     0     0  273.92829    0    3  262.26367  273.92829  4.45%     -    0s
H    0     0                     264.9480913  273.87241  3.37%     -    0s
     0     0  273.87241    0    3  264.94809  273.87241  3.37%     -    0s
     0     0  273.83441    0    3  264.94809  273.83441  3.35%     -    0s
     0     0  273.79556    0    3  264.94809  273.79556  3.34%     -    0s
     0     0  273.73471    0    3  264.94809  273.73471  3.32%     -    0s
     0     0  273.66741    0    3  264.94809  273.66741  3.29%     -    0s
     0     0  273.62686    0    3  264.94809  273.62686  3.28%     -    0s
     0     0  273.58785    0    3  264.94809  273.58785  3.26%     -    0s
     0     0  273.55378    0    3  264.94809  273.55378  3.25%     -    0s
     0     0  273.54634    0    3  264.94809  273.54634  3.25%     -    0s
     0     0  273.53635    0    3  264.94809  273.53635  3.24%     -    0s
     0     0  273.53605    0    3  264.94809  273.53605  3.24%     -    0s
     0     0  273.28143    0    2  264.94809  273.28143  3.15%     -    0s
H    0     0                     271.9952617  273.28143  0.47%     -    0s
     0     0  273.23293    0    2  271.99526  273.23293  0.46%     -    0s
     0     0  273.23293    0    2  271.99526  273.23293  0.46%     -    1s
     0     0  273.23293    0    2  271.99526  273.23293  0.46%     -    2s
     0     0  273.23293    0    2  271.99526  273.23293  0.46%     -    2s
     0     0  273.23293    0    2  271.99526  273.23293  0.46%     -    2s
     0     0  273.23293    0    2  271.99526  273.23293  0.46%     -    2s
     0     0  273.23293    0    2  271.99526  273.23293  0.46%     -    2s
     0     0  273.23027    0    2  271.99526  273.23027  0.45%     -    2s
     0     0  273.22729    0    2  271.99526  273.22729  0.45%     -    2s
     0     0  273.22729    0    2  271.99526  273.22729  0.45%     -    2s
     0     0  273.22729    0    2  271.99526  273.22729  0.45%     -    2s
     0     0  273.09855    0    2  271.99526  273.09855  0.41%     -    2s
     0     0  273.09855    0    2  271.99526  273.09855  0.41%     -    2s
H    0     0                     272.3250113  273.09855  0.28%     -    2s
     0     0  272.95072    0    4  272.32501  272.95072  0.23%     -    2s
     0     0  272.95072    0    6  272.32501  272.95072  0.23%     -    2s
     0     0  272.95010    0    4  272.32501  272.95010  0.23%     -    2s

Cutting planes:
  Gomory: 6
  MIR: 452
  Flow cover: 32
  RLT: 6
  Relax-and-lift: 3

Explored 1 nodes (7527 simplex iterations) in 2.65 seconds (1.34 work units)
Thread count was 20 (of 20 available processors)

Solution count 5: 272.325 271.995 264.948 ... 255.918

Optimal solution found (tolerance 1.00e-04)
Best objective 2.723250112736e+02, best bound 2.723250112736e+02, gap 0.0000%



#########node  1
V1.6
#########node  2
0.10714285714285716,0.8928571428571428
#########node  3
1.0,0.0


Total Solving Time 3.0124599933624268
obj value 272.3250112736089
Policy Regret train (Sum) 7.333573780976075
Best Treatment Found train (%) 64.2
treatment classification acc train (%) 31.0
Policy Regret test (Sum) 28.73848887990478
Best Treatment Found test (%) 83.74000000000001
treatment classification acc test (%) 30.29
